Course Timeslot 
1 10
2 7
3 6
4 14
5 12
6 6
7 12
8 13
9 8
10 7
11 0
12 12
13 0
14 5
15 4
16 1
17 4
18 9
19 10
20 14
21 0
22 9
23 0
24 5
25 5
26 1
27 5
28 2
29 8
30 8
31 8
32 8
33 8
34 8
35 3
36 3
37 3
38 18
39 3
40 1
41 0
42 17
43 1
44 8
45 17
46 2
47 0
48 0
49 7
50 14
51 7
52 16
53 9
54 9
55 8
56 13
57 5
58 3
59 1
60 15
61 11
62 14
63 15
64 0
65 11
66 6
67 13
68 13
69 16
70 10
71 1
72 11
73 6
74 15
75 15
76 10
77 10
78 14
79 9
80 9
81 3
82 9
83 5
84 15
85 7
86 7
87 13
88 11
89 18
90 11
91 4
92 17
93 4
94 10
95 12
96 6
97 3
98 0
99 16
100 3
101 5
102 2
103 4
104 18
105 18
106 15
107 1
108 14
109 2
110 2
111 2
112 4
113 4
114 4
115 4
116 2
117 2
118 2
119 18
120 3
121 7
122 3
123 17
124 4
125 7
126 6
127 8
128 15
129 10
130 0
131 0
132 0
133 0
134 2
135 14
136 16
137 16
138 16
139 16
140 14
141 5
142 0
143 11
144 11
145 19
146 10
147 16
148 8
149 12
150 13
151 12
152 11
153 13
154 13
155 6
156 1
157 17
158 9
159 14
160 16
161 13
162 18
163 6
164 13
165 5
166 5
167 12
168 17
169 13
170 2
171 19
172 10
173 6
174 7
175 17
176 18
177 9
178 11
179 18
180 6
181 12
